! Solving for graph ../../../benchmarks/linear/S-sherman4.mtx.rnd
! Target value is set to 128
! No predefined lower bound found. Lower bound is set to 1
! No predefined upper bound found. Upper bound is set to 69761
 ! --------------------------------------------------- CP Optimizer 22.2.0.0 --
 ! Minimization problem - 547 variables, 1887 constraints, 1 phase
 ! TimeLimit            = 30
 ! LogVerbosity         = Verbose
 ! Initial process time : 0.02s (0.02s extraction + 0.00s propagation)
 !  . Log search space  : 8801.3 (before), 8801.3 (after)
 !  . Memory usage      : 929.7 kB (before), 929.7 kB (after)
 ! Using parallel search with 8 workers.
 ! ----------------------------------------------------------------------------
 !          Best Branches  Non-fixed    W       Branch decision
                        0        547                 -
 + New bound is 1
                        0        547    1            -
 + New bound is 129
 *           129        1  0.17s        1      (gap is 0.00%)
 ! ----------------------------------------------------------------------------
 ! Search completed, 1 solution found.
 ! Best objective         : 129 (optimal - effective tol. is 0)
 ! Best bound             : 129
 ! ----------------------------------------------------------------------------
 ! Number of branches     : 4008
 ! Number of fails        : 100
 ! Total memory usage     : 64.4 MB (63.7 MB CP Optimizer + 0.8 MB Concert)
 ! Time spent in solve    : 0.17s (0.15s engine + 0.02s extraction)
 ! Search speed (br. / s) : 28628.6
 ! ----------------------------------------------------------------------------
! --------------------------------------------------------
! Best span = 129
! Labeling: 129 129 1 1 1 129 129 129 129 129 1 129 129 1 129 129 129 1 1 1 129 1 1 129 1 1 129 129 129 1 1 1 1 1 129 129 1 129 1 129 129 1 129 1 1 1 1 1 1 1 1 1 129 129 1 129 129 1 1 1 1 1 1 1 1 129 1 129 1 129 1 129 129 129 129 129 129 1 129 129 1 1 129 1 129 129 1 129 129 129 129 129 1 1 129 1 129 1 1 1 1 129 129 1 1 1 1 129 1 129 1 129 129 129 129 1 1 1 1 1 129 1 1 1 1 1 1 129 1 1 129 1 1 1 1 129 129 1 129 1 1 1 129 129 129 129 129 129 1 129 129 1 129 129 1 1 1 1 129 129 129 129 1 129 1 1 129 1 129 129 129 129 1 1 129 1 1 1 129 129 129 129 129 129 129 1 1 1 1 129 129 1 129 1 1 1 129 129 129 1 129 129 129 1 1 1 129 129 1 129 129 1 129 1 129 129 1 129 1 1 1 1 129 129 129 1 129 1 1 129 1 129 129 1 1 1 1 129 129 129 1 1 129 129 1 1 1 1 129 129 129 129 1 1 1 1 129 1 1 129 129 1 129 129 1 1 1 1 1 1 129 1 1 129 129 129 1 129 1 1 1 129 1 129 1 1 129 1 1 129 129 1 1 1 1 1 129 129 1 1 129 129 129 129 129 1 129 129 129 129 1 1 129 1 129 1 129 129 1 129 1 1 129 129 1 129 129 1 1 129 129 129 1 1 1 1 1 1 129 129 1 1 129 1 1 129 1 129 1 129 129 129 1 129 1 129 129 129 129 129 129 129 129 1 129 1 1 1 1 129 1 129 129 129 129 1 129 129 1 129 129 129 1 1 1 129 1 129 129 129 129 1 129 1 1 1 129 129 129 1 1 1 129 129 1 129 1 129 129 1 129 1 1 1 1 129 129 129 1 129 129 129 129 1 1 1 129 129 129 129 1 129 129 1 1 1 1 129 1 1 129 129 1 129 129 129 1 129 129 1 129 1 1 1 1 129 129 129 129 129 1 1 129 129 1 129 1 1 1 1 129 1 1 129 129 1 129 1 129 1 1 129 129 1 129 129 129 129 1 129 129 129 129 1 129 1 129 1 129 129 1 129 1 1 1 1 1 1 129 1 1 1 1 1 1 1 129 1 129 1 129 129 129 1 129 129 1 1 1 129 1 129 129 1 1 129 129 129 1 129 129 129 129 129 1 1 
! -------------------------------------------------------- 
